Traveling Salesman Problem/TSP_generados/Aleatorio1620390895_7.tsp
NAME: Aleatorio1620390895_7.tsp
COMMENT: Randomly generated scenario
TYPE: TSP
DIMENSION: 7
EDGE_WEIGHT_TYPE: ATT
NODE_COORD_SECTION
1 48.27 21.92
2 22.28 6.65
3 34.05 49.17
4 8.12 7.46
5 39.84 10.34
6 3.38 41.5
7 47.7 37.04
