Traveling Salesman Problem/TSP_generados/Aleatorio1620390895_7.opt.tour
NAME: Aleatorio1620390895_7.opt.tour
COMMENT: Optimal solution for Aleatorio1620390895_7 (145.82467837168934)
TYPE: TOUR
DIMENSION: 7
TOUR_SECTION
1 7 3 6 4 2 5
-1
EOF
